
Gurobi 8.1.0 (mac64) logging started Tue Aug 20 13:33:55 2019

Changed value of parameter LogFile to output/GurobiLog.txt
   Prev: gurobi.log  Default: 

Gurobi 8.1.0 (mac64) logging started Tue Aug 20 14:19:41 2019

Changed value of parameter LogFile to output/GurobiLog.txt
   Prev: gurobi.log  Default: 

Gurobi 8.1.0 (mac64) logging started Tue Aug 20 14:20:02 2019

Changed value of parameter LogFile to output/GurobiLog.txt
   Prev: gurobi.log  Default: 
